32      4       
10      10      10      10      
0       0       0       0       0       6       2       3       4       5       7       12      
7       1       0       1       1       4       6       11      15      18      
3       0       1       3       7       5       9       10      18      20      31      
2       7       7       8       0       6       8       13      16      17      18      20      
3       0       2       3       3       5       9       11      15      19      20      
1       0       3       3       5       5       13      16      17      19      20      
9       2       0       3       3       3       8       13      16      
4       5       3       1       0       4       14      21      22      24      
3       3       3       5       0       3       16      17      29      
7       6       3       0       6       2       13      17      
9       6       7       0       6       4       17      22      24      29      
5       0       4       3       4       2       15      21      
5       2       4       3       0       1       14      
9       4       0       3       3       6       23      25      27      28      29      30      
1       4       3       0       1       4       22      23      24      29      
8       5       5       3       0       4       23      24      25      28      
10      6       3       4       0       3       21      26      30      
10      1       2       0       3       5       25      26      27      28      30      
10      6       3       4       0       5       25      26      27      28      30      
8       4       0       5       4       3       22      23      29      
7       3       0       4       3       3       25      27      28      
3       3       6       0       3       2       25      26      
10      4       6       0       1       1       26      
9       0       3       7       1       1       27      
7       5       4       0       5       1       32      
1       3       4       5       0       1       32      
2       0       5       5       8       1       32      
1       0       4       6       5       1       32      
10      0       2       8       3       1       32      
9       0       7       3       7       1       32      
2       0       6       2       6       1       32      
0       0       0       0       0       0       
